;; sequence(s): A15553
;; terms: 0 1 6 47 348 2605 19458 145403 1086456 8118169 60660030 453260039 3386820564 25306783813 189095729082 1412948996435 10557746998512 78888920951857 589468742694774 4404590586639071
;; small program: loop2(y - x, (2 * ((2 * (x + y)) + y)) + y, x, 0, 1)
;; fast program: loop2((2 * ((1 + 2) * ((x + y) + y))) - y, x, x - 1, if x <= 0 then 0 else 1, 0)
(set-logic UFNIA)
(declare-fun f0 (Int Int) Int)
(declare-fun g0 (Int Int) Int)
(declare-fun h0 (Int) Int)
(declare-fun i0 () Int)
(declare-fun j0 () Int)
(declare-fun u0 (Int Int Int) Int)
(declare-fun v0 (Int Int Int) Int)
(declare-fun w0 (Int) Int)
(declare-fun small (Int) Int)
(declare-fun f1 (Int Int) Int)
(declare-fun g1 (Int) Int)
(declare-fun h1 (Int) Int)
(declare-fun i1 (Int) Int)
(declare-fun j1 () Int)
(declare-fun u1 (Int Int Int) Int)
(declare-fun v1 (Int Int Int) Int)
(declare-fun w1 (Int) Int)
(declare-fun fast (Int) Int)
(assert (forall ((x Int) (y Int)) (= (f0 x y) (- y x))))
(assert (forall ((x Int) (y Int)) (= (g0 x y) (+ (* 2 (+ (* 2 (+ x y)) y)) y))))
(assert (forall ((x Int)) (= (h0 x) x)))
(assert (= i0 0))
(assert (= j0 1))
(assert (forall ((x Int) (y Int) (z Int)) (= (u0 x y z) (ite (<= x 0) y (f0 (u0 (- x 1) y z) (v0 (- x 1) y z))))))
(assert (forall ((x Int) (y Int) (z Int)) (= (v0 x y z) (ite (<= x 0) z (g0 (u0 (- x 1) y z) (v0 (- x 1) y z))))))
(assert (forall ((x Int)) (= (w0 x) (u0 (h0 x) i0 j0))))
(assert (forall ((x Int)) (= (small x) (w0 x))))
(assert (forall ((x Int) (y Int)) (= (f1 x y) (- (* 2 (* (+ 1 2) (+ (+ x y) y))) y))))
(assert (forall ((x Int)) (= (g1 x) x)))
(assert (forall ((x Int)) (= (h1 x) (- x 1))))
(assert (forall ((x Int)) (= (i1 x) (ite (<= x 0) 0 1))))
(assert (= j1 0))
(assert (forall ((x Int) (y Int) (z Int)) (= (u1 x y z) (ite (<= x 0) y (f1 (u1 (- x 1) y z) (v1 (- x 1) y z))))))
(assert (forall ((x Int) (y Int) (z Int)) (= (v1 x y z) (ite (<= x 0) z (g1 (u1 (- x 1) y z))))))
(assert (forall ((x Int)) (= (w1 x) (u1 (h1 x) (i1 x) j1))))
(assert (forall ((x Int)) (= (fast x) (w1 x))))
(assert (exists ((c Int)) (and (>= c 0) (not (= (small c) (fast c))))))
(check-sat)
